cluster_editing/exact/simple_reductions/graphs/exact155.gr
p cep 263 1295
1 8
1 12
1 20
1 72
1 95
1 120
1 125
1 132
1 147
1 161
1 175
1 179
1 191
1 219
1 234
1 240
2 74
2 144
2 183
4 10
4 36
4 38
4 43
4 45
4 46
4 59
4 62
4 76
4 82
4 84
4 91
4 100
4 113
4 146
4 189
4 194
4 197
4 205
4 208
4 209
4 221
4 222
4 226
4 228
4 229
4 231
4 238
5 112
5 130
5 237
5 246
7 78
7 107
7 160
7 165
7 180
7 196
7 199
7 215
7 248
8 12
8 20
8 72
8 95
8 120
8 125
8 132
8 147
8 161
8 175
8 179
8 191
8 219
8 234
8 240
9 34
9 104
9 136
9 139
11 97
11 115
11 128
12 20
12 72
12 95
12 120
12 125
12 132
12 147
12 161
12 175
12 179
12 191
12 219
12 234
12 240
13 40
14 65
14 217
15 24
15 32
15 51
15 54
15 68
15 70
15 79
15 81
15 83
15 90
15 94
15 102
15 108
15 117
15 118
15 119
15 122
15 140
15 141
15 151
15 156
15 157
15 158
15 163
15 164
15 170
15 198
15 233
15 235
15 245
15 254
15 259
15 260
15 261
17 33
17 66
17 111
17 206
17 212
17 258
20 72
20 95
20 120
20 132
20 147
20 161
20 175
20 179
20 191
20 219
20 234
20 240
21 60
22 155
23 31
23 61
23 63
23 92
23 224
24 32
24 51
24 54
24 68
24 70
24 79
24 81
24 83
24 90
24 94
24 102
24 108
24 117
24 118
24 119
24 122
24 140
24 141
24 151
24 156
24 157
24 158
24 163
24 164
24 170
24 198
24 233
24 235
24 245
24 254
24 259
24 260
24 261
25 73
27 29
27 99
27 110
27 135
27 188
27 227
28 41
28 50
28 77
28 89
28 103
28 121
28 126
28 159
28 172
28 177
28 193
28 247
28 263
29 99
29 110
29 135
29 188
29 227
30 185
31 61
31 63
31 224
32 51
32 54
32 57
32 68
32 70
32 79
32 81
32 83
32 90
32 94
32 102
32 108
32 117
32 118
32 119
32 122
32 140
32 141
32 151
32 156
32 157
32 158
32 163
32 164
32 170
32 198
32 233
32 235
32 245
32 254
32 259
32 260
32 261
33 66
33 111
33 206
33 212
33 258
34 104
34 136
34 139
35 123
36 38
36 43
36 45
36 46
36 59
36 82
36 84
36 91
36 100
36 113
36 146
36 194
36 197
36 205
36 208
36 209
36 221
36 226
36 228
36 229
36 231
36 238
38 43
38 45
38 46
38 59
38 76
38 82
38 84
38 91
38 100
38 113
38 146
38 189
38 194
38 197
38 205
38 208
38 209
38 221
38 222
38 226
38 228
38 229
38 231
38 238
39 109
40 78
40 107
40 165
40 196
40 215
41 50
41 77
41 89
41 103
41 121
41 126
41 159
41 172
41 177
41 193
41 247
41 263
42 52
42 53
42 87
42 138
43 45
43 46
43 59
43 82
43 84
43 91
43 100
43 113
43 194
43 205
43 208
43 209
43 221
43 222
43 226
43 228
43 229
43 231
43 238
45 46
45 59
45 82
45 84
45 91
45 100
45 113
45 194
45 205
45 208
45 209
45 221
45 222
45 226
45 228
45 229
45 231
45 238
46 59
46 82
46 84
46 91
46 100
46 113
46 146
46 194
46 197
46 205
46 208
46 209
46 221
46 222
46 226
46 228
46 229
46 231
46 238
47 49
50 77
50 89
50 103
50 121
50 126
50 159
50 172
50 177
50 193
50 247
50 263
51 54
51 57
51 68
51 70
51 79
51 81
51 83
51 90
51 94
51 102
51 108
51 117
51 118
51 119
51 122
51 140
51 141
51 151
51 156
51 157
51 158
51 163
51 164
51 170
51 198
51 233
51 235
51 245
51 254
51 259
51 260
51 261
52 53
52 87
52 137
52 138
53 87
53 137
53 138
54 57
54 68
54 70
54 79
54 81
54 83
54 90
54 94
54 102
54 108
54 117
54 118
54 119
54 122
54 140
54 141
54 151
54 156
54 157
54 158
54 163
54 164
54 170
54 198
54 233
54 235
54 245
54 254
54 259
54 260
54 261
55 195
56 158
56 235
57 81
57 83
57 90
57 102
57 117
57 118
57 119
57 122
57 140
57 151
57 156
57 157
57 158
57 163
57 164
57 198
57 233
57 235
57 245
57 254
57 259
57 260
57 261
59 82
59 84
59 91
59 100
59 113
59 146
59 194
59 197
59 205
59 208
59 209
59 221
59 226
59 228
59 229
59 231
59 238
61 63
61 224
63 224
64 137
65 217
66 111
66 206
66 258
67 241
68 70
68 79
68 81
68 83
68 90
68 94
68 102
68 108
68 117
68 118
68 119
68 122
68 140
68 141
68 151
68 156
68 157
68 158
68 163
68 164
68 170
68 198
68 233
68 235
68 245
68 254
68 259
68 260
68 261
69 169
70 79
70 81
70 83
70 90
70 94
70 102
70 108
70 117
70 118
70 119
70 122
70 140
70 141
70 151
70 156
70 157
70 158
70 163
70 164
70 170
70 198
70 233
70 235
70 245
70 254
70 259
70 260
70 261
72 95
72 120
72 125
72 132
72 147
72 161
72 175
72 179
72 191
72 219
72 234
72 240
73 80
74 144
74 183
76 189
76 221
77 89
77 103
77 121
77 126
77 159
77 172
77 177
77 193
77 247
77 263
78 107
78 165
78 196
78 215
79 81
79 83
79 90
79 94
79 102
79 108
79 117
79 118
79 119
79 122
79 140
79 141
79 151
79 156
79 157
79 158
79 163
79 164
79 170
79 198
79 233
79 235
79 245
79 254
79 259
79 260
79 261
81 83
81 90
81 94
81 102
81 108
81 117
81 118
81 119
81 122
81 140
81 141
81 151
81 156
81 157
81 158
81 163
81 164
81 170
81 198
81 200
81 233
81 235
81 245
81 254
81 259
81 260
81 261
82 84
82 91
82 100
82 113
82 146
82 194
82 197
82 205
82 208
82 209
82 221
82 222
82 226
82 228
82 229
82 231
82 238
83 90
83 94
83 102
83 108
83 117
83 118
83 119
83 122
83 140
83 141
83 151
83 156
83 157
83 158
83 163
83 164
83 170
83 198
83 200
83 233
83 235
83 245
83 254
83 259
83 260
83 261
84 91
84 100
84 113
84 146
84 194
84 197
84 205
84 208
84 209
84 221
84 226
84 228
84 229
84 231
84 238
87 137
87 138
89 103
89 121
89 126
89 159
89 172
89 177
89 193
89 247
89 263
90 94
90 102
90 108
90 117
90 118
90 119
90 122
90 140
90 141
90 151
90 156
90 157
90 158
90 163
90 164
90 170
90 198
90 233
90 235
90 245
90 254
90 259
90 260
90 261
91 100
91 113
91 146
91 194
91 197
91 205
91 208
91 209
91 221
91 222
91 226
91 228
91 229
91 231
91 238
94 102
94 108
94 117
94 118
94 119
94 122
94 140
94 141
94 151
94 156
94 157
94 158
94 163
94 164
94 170
94 198
94 233
94 235
94 245
94 254
94 259
94 260
94 261
95 120
95 125
95 132
95 147
95 161
95 175
95 179
95 191
95 219
95 234
95 240
96 230
97 115
97 128
99 110
99 135
99 188
99 227
100 113
100 146
100 194
100 197
100 205
100 208
100 209
100 221
100 226
100 228
100 229
100 231
100 238
102 108
102 117
102 118
102 119
102 122
102 140
102 141
102 151
102 156
102 157
102 158
102 163
102 164
102 170
102 198
102 233
102 235
102 245
102 254
102 259
102 260
102 261
103 121
103 126
103 159
103 172
103 177
103 193
103 247
103 263
104 136
104 139
105 169
107 165
107 196
107 215
108 117
108 118
108 119
108 122
108 140
108 141
108 151
108 156
108 157
108 158
108 163
108 164
108 170
108 198
108 233
108 235
108 245
108 254
108 259
108 260
108 261
110 135
110 188
110 227
111 206
111 212
111 258
113 146
113 194
113 197
113 205
113 208
113 209
113 221
113 226
113 228
113 229
113 231
113 238
115 128
117 118
117 119
117 122
117 140
117 141
117 151
117 156
117 157
117 158
117 163
117 164
117 170
117 198
117 233
117 235
117 245
117 254
117 259
117 260
117 261
118 119
118 122
118 140
118 141
118 151
118 156
118 157
118 158
118 163
118 164
118 170
118 198
118 233
118 235
118 245
118 254
118 259
118 260
118 261
119 122
119 140
119 141
119 151
119 156
119 157
119 158
119 163
119 164
119 170
119 198
119 233
119 235
119 245
119 254
119 259
119 260
119 261
120 132
120 147
120 161
120 175
120 179
120 191
120 219
120 234
120 240
121 126
121 159
121 172
121 177
121 193
121 247
121 263
122 140
122 141
122 151
122 156
122 157
122 158
122 163
122 164
122 170
122 198
122 233
122 235
122 245
122 254
122 259
122 260
122 261
125 132
125 147
125 161
125 179
125 191
125 219
125 234
125 240
126 159
126 172
126 177
126 193
126 247
126 263
127 174
132 147
132 161
132 175
132 179
132 191
132 219
132 234
132 240
135 188
135 227
136 139
140 141
140 151
140 156
140 157
140 158
140 163
140 164
140 170
140 198
140 233
140 235
140 245
140 254
140 259
140 260
140 261
141 151
141 156
141 157
141 158
141 163
141 164
141 170
141 198
141 233
141 235
141 245
141 254
141 259
141 260
141 261
143 253
144 183
146 194
146 197
146 205
146 209
146 221
146 226
146 228
146 229
146 231
146 238
147 161
147 175
147 179
147 191
147 219
147 234
147 240
148 150
151 156
151 157
151 158
151 163
151 164
151 170
151 198
151 233
151 235
151 245
151 254
151 259
151 260
151 261
152 201
153 192
153 204
153 216
156 157
156 158
156 163
156 164
156 170
156 198
156 200
156 233
156 235
156 245
156 254
156 259
156 260
156 261
157 158
157 163
157 164
157 170
157 198
157 233
157 235
157 245
157 254
157 259
157 260
157 261
158 163
158 164
158 170
158 198
158 233
158 235
158 245
158 254
158 259
158 260
158 261
159 172
159 177
159 193
159 247
159 263
160 180
160 199
160 248
161 175
161 179
161 191
161 219
161 234
161 240
163 164
163 170
163 198
163 233
163 235
163 245
163 254
163 259
163 260
163 261
164 170
164 198
164 233
164 235
164 245
164 254
164 259
164 260
164 261
165 196
165 215
166 244
170 198
170 233
170 235
170 245
170 254
170 259
170 260
170 261
172 177
172 193
172 247
172 263
173 256
175 179
175 219
175 234
175 240
177 193
177 247
177 263
179 191
179 219
179 234
179 240
180 199
180 248
181 248
181 250
188 227
189 209
189 221
191 219
191 234
191 240
192 216
193 247
193 263
194 197
194 205
194 208
194 209
194 221
194 222
194 226
194 228
194 229
194 231
194 238
196 215
197 205
197 209
197 221
197 226
197 228
197 229
197 231
197 238
198 233
198 235
198 245
198 254
198 259
198 260
198 261
199 248
200 261
205 208
205 209
205 221
205 226
205 228
205 229
205 231
205 238
206 258
208 209
208 221
208 226
208 228
208 229
208 231
208 238
209 221
209 226
209 228
209 229
209 231
209 238
212 258
214 239
219 234
219 240
221 222
221 226
221 228
221 229
221 231
221 238
222 226
222 229
222 243
225 249
226 228
226 229
226 231
226 238
228 229
228 231
228 238
229 231
229 238
231 238
233 235
233 245
233 254
233 259
233 260
233 261
234 240
235 245
235 254
235 259
235 260
235 261
237 246
245 254
245 259
245 260
245 261
247 263
254 259
254 260
254 261
259 260
259 261
260 261
