cluster_editing/exact/simple_reductions/graphs/exact155.gr.metis
263 1295
8 12 20 72 95 120 125 132 147 161 175 179 191 219 234 240 
74 144 183 

10 36 38 43 45 46 59 62 76 82 84 91 100 113 146 189 194 197 205 208 209 221 222 226 228 229 231 238 
112 130 237 246 

78 107 160 165 180 196 199 215 248 
1 12 20 72 95 120 125 132 147 161 175 179 191 219 234 240 
34 104 136 139 
4 
97 115 128 
1 8 20 72 95 120 125 132 147 161 175 179 191 219 234 240 
40 
65 217 
24 32 51 54 68 70 79 81 83 90 94 102 108 117 118 119 122 140 141 151 156 157 158 163 164 170 198 233 235 245 254 259 260 261 

33 66 111 206 212 258 


1 8 12 72 95 120 132 147 161 175 179 191 219 234 240 
60 
155 
31 61 63 92 224 
15 32 51 54 68 70 79 81 83 90 94 102 108 117 118 119 122 140 141 151 156 157 158 163 164 170 198 233 235 245 254 259 260 261 
73 

29 99 110 135 188 227 
41 50 77 89 103 121 126 159 172 177 193 247 263 
27 99 110 135 188 227 
185 
23 61 63 224 
15 24 51 54 57 68 70 79 81 83 90 94 102 108 117 118 119 122 140 141 151 156 157 158 163 164 170 198 233 235 245 254 259 260 261 
17 66 111 206 212 258 
9 104 136 139 
123 
4 38 43 45 46 59 82 84 91 100 113 146 194 197 205 208 209 221 226 228 229 231 238 

4 36 43 45 46 59 76 82 84 91 100 113 146 189 194 197 205 208 209 221 222 226 228 229 231 238 
109 
13 78 107 165 196 215 
28 50 77 89 103 121 126 159 172 177 193 247 263 
52 53 87 138 
4 36 38 45 46 59 82 84 91 100 113 194 205 208 209 221 222 226 228 229 231 238 

4 36 38 43 46 59 82 84 91 100 113 194 205 208 209 221 222 226 228 229 231 238 
4 36 38 43 45 59 82 84 91 100 113 146 194 197 205 208 209 221 222 226 228 229 231 238 
49 

47 
28 41 77 89 103 121 126 159 172 177 193 247 263 
15 24 32 54 57 68 70 79 81 83 90 94 102 108 117 118 119 122 140 141 151 156 157 158 163 164 170 198 233 235 245 254 259 260 261 
42 53 87 137 138 
42 52 87 137 138 
15 24 32 51 57 68 70 79 81 83 90 94 102 108 117 118 119 122 140 141 151 156 157 158 163 164 170 198 233 235 245 254 259 260 261 
195 
158 235 
32 51 54 81 83 90 102 117 118 119 122 140 151 156 157 158 163 164 198 233 235 245 254 259 260 261 

4 36 38 43 45 46 82 84 91 100 113 146 194 197 205 208 209 221 226 228 229 231 238 
21 
23 31 63 224 
4 
23 31 61 224 
137 
14 217 
17 33 111 206 258 
241 
15 24 32 51 54 70 79 81 83 90 94 102 108 117 118 119 122 140 141 151 156 157 158 163 164 170 198 233 235 245 254 259 260 261 
169 
15 24 32 51 54 68 79 81 83 90 94 102 108 117 118 119 122 140 141 151 156 157 158 163 164 170 198 233 235 245 254 259 260 261 

1 8 12 20 95 120 125 132 147 161 175 179 191 219 234 240 
25 80 
2 144 183 

4 38 189 221 
28 41 50 89 103 121 126 159 172 177 193 247 263 
7 40 107 165 196 215 
15 24 32 51 54 68 70 81 83 90 94 102 108 117 118 119 122 140 141 151 156 157 158 163 164 170 198 233 235 245 254 259 260 261 
73 
15 24 32 51 54 57 68 70 79 83 90 94 102 108 117 118 119 122 140 141 151 156 157 158 163 164 170 198 200 233 235 245 254 259 260 261 
4 36 38 43 45 46 59 84 91 100 113 146 194 197 205 208 209 221 222 226 228 229 231 238 
15 24 32 51 54 57 68 70 79 81 90 94 102 108 117 118 119 122 140 141 151 156 157 158 163 164 170 198 200 233 235 245 254 259 260 261 
4 36 38 43 45 46 59 82 91 100 113 146 194 197 205 208 209 221 226 228 229 231 238 


42 52 53 137 138 

28 41 50 77 103 121 126 159 172 177 193 247 263 
15 24 32 51 54 57 68 70 79 81 83 94 102 108 117 118 119 122 140 141 151 156 157 158 163 164 170 198 233 235 245 254 259 260 261 
4 36 38 43 45 46 59 82 84 100 113 146 194 197 205 208 209 221 222 226 228 229 231 238 
23 

15 24 32 51 54 68 70 79 81 83 90 102 108 117 118 119 122 140 141 151 156 157 158 163 164 170 198 233 235 245 254 259 260 261 
1 8 12 20 72 120 125 132 147 161 175 179 191 219 234 240 
230 
11 115 128 

27 29 110 135 188 227 
4 36 38 43 45 46 59 82 84 91 113 146 194 197 205 208 209 221 226 228 229 231 238 

15 24 32 51 54 57 68 70 79 81 83 90 94 108 117 118 119 122 140 141 151 156 157 158 163 164 170 198 233 235 245 254 259 260 261 
28 41 50 77 89 121 126 159 172 177 193 247 263 
9 34 136 139 
169 

7 40 78 165 196 215 
15 24 32 51 54 68 70 79 81 83 90 94 102 117 118 119 122 140 141 151 156 157 158 163 164 170 198 233 235 245 254 259 260 261 
39 
27 29 99 135 188 227 
17 33 66 206 212 258 
5 
4 36 38 43 45 46 59 82 84 91 100 146 194 197 205 208 209 221 226 228 229 231 238 

11 97 128 

15 24 32 51 54 57 68 70 79 81 83 90 94 102 108 118 119 122 140 141 151 156 157 158 163 164 170 198 233 235 245 254 259 260 261 
15 24 32 51 54 57 68 70 79 81 83 90 94 102 108 117 119 122 140 141 151 156 157 158 163 164 170 198 233 235 245 254 259 260 261 
15 24 32 51 54 57 68 70 79 81 83 90 94 102 108 117 118 122 140 141 151 156 157 158 163 164 170 198 233 235 245 254 259 260 261 
1 8 12 20 72 95 132 147 161 175 179 191 219 234 240 
28 41 50 77 89 103 126 159 172 177 193 247 263 
15 24 32 51 54 57 68 70 79 81 83 90 94 102 108 117 118 119 140 141 151 156 157 158 163 164 170 198 233 235 245 254 259 260 261 
35 

1 8 12 72 95 132 147 161 179 191 219 234 240 
28 41 50 77 89 103 121 159 172 177 193 247 263 
174 
11 97 115 

5 

1 8 12 20 72 95 120 125 147 161 175 179 191 219 234 240 


27 29 99 110 188 227 
9 34 104 139 
52 53 64 87 
42 52 53 87 
9 34 104 136 
15 24 32 51 54 57 68 70 79 81 83 90 94 102 108 117 118 119 122 141 151 156 157 158 163 164 170 198 233 235 245 254 259 260 261 
15 24 32 51 54 68 70 79 81 83 90 94 102 108 117 118 119 122 140 151 156 157 158 163 164 170 198 233 235 245 254 259 260 261 

253 
2 74 183 

4 36 38 46 59 82 84 91 100 113 194 197 205 209 221 226 228 229 231 238 
1 8 12 20 72 95 120 125 132 161 175 179 191 219 234 240 
150 

148 
15 24 32 51 54 57 68 70 79 81 83 90 94 102 108 117 118 119 122 140 141 156 157 158 163 164 170 198 233 235 245 254 259 260 261 
201 
192 204 216 

22 
15 24 32 51 54 57 68 70 79 81 83 90 94 102 108 117 118 119 122 140 141 151 157 158 163 164 170 198 200 233 235 245 254 259 260 261 
15 24 32 51 54 57 68 70 79 81 83 90 94 102 108 117 118 119 122 140 141 151 156 158 163 164 170 198 233 235 245 254 259 260 261 
15 24 32 51 54 56 57 68 70 79 81 83 90 94 102 108 117 118 119 122 140 141 151 156 157 163 164 170 198 233 235 245 254 259 260 261 
28 41 50 77 89 103 121 126 172 177 193 247 263 
7 180 199 248 
1 8 12 20 72 95 120 125 132 147 175 179 191 219 234 240 

15 24 32 51 54 57 68 70 79 81 83 90 94 102 108 117 118 119 122 140 141 151 156 157 158 164 170 198 233 235 245 254 259 260 261 
15 24 32 51 54 57 68 70 79 81 83 90 94 102 108 117 118 119 122 140 141 151 156 157 158 163 170 198 233 235 245 254 259 260 261 
7 40 78 107 196 215 
244 


69 105 
15 24 32 51 54 68 70 79 81 83 90 94 102 108 117 118 119 122 140 141 151 156 157 158 163 164 198 233 235 245 254 259 260 261 

28 41 50 77 89 103 121 126 159 177 193 247 263 
256 
127 
1 8 12 20 72 95 120 132 147 161 179 219 234 240 

28 41 50 77 89 103 121 126 159 172 193 247 263 

1 8 12 20 72 95 120 125 132 147 161 175 191 219 234 240 
7 160 199 248 
248 250 

2 74 144 

30 


27 29 99 110 135 227 
4 38 76 209 221 

1 8 12 20 72 95 120 125 132 147 161 179 219 234 240 
153 216 
28 41 50 77 89 103 121 126 159 172 177 247 263 
4 36 38 43 45 46 59 82 84 91 100 113 146 197 205 208 209 221 222 226 228 229 231 238 
55 
7 40 78 107 165 215 
4 36 38 46 59 82 84 91 100 113 146 194 205 209 221 226 228 229 231 238 
15 24 32 51 54 57 68 70 79 81 83 90 94 102 108 117 118 119 122 140 141 151 156 157 158 163 164 170 233 235 245 254 259 260 261 
7 160 180 248 
81 83 156 261 
152 


153 
4 36 38 43 45 46 59 82 84 91 100 113 146 194 197 208 209 221 226 228 229 231 238 
17 33 66 111 258 

4 36 38 43 45 46 59 82 84 91 100 113 194 205 209 221 226 228 229 231 238 
4 36 38 43 45 46 59 82 84 91 100 113 146 189 194 197 205 208 221 226 228 229 231 238 


17 33 111 258 

239 
7 40 78 107 165 196 
153 192 
14 65 

1 8 12 20 72 95 120 125 132 147 161 175 179 191 234 240 

4 36 38 43 45 46 59 76 82 84 91 100 113 146 189 194 197 205 208 209 222 226 228 229 231 238 
4 38 43 45 46 82 91 194 221 226 229 243 

23 31 61 63 
249 
4 36 38 43 45 46 59 82 84 91 100 113 146 194 197 205 208 209 221 222 228 229 231 238 
27 29 99 110 135 188 
4 36 38 43 45 46 59 82 84 91 100 113 146 194 197 205 208 209 221 226 229 231 238 
4 36 38 43 45 46 59 82 84 91 100 113 146 194 197 205 208 209 221 222 226 228 231 238 
96 
4 36 38 43 45 46 59 82 84 91 100 113 146 194 197 205 208 209 221 226 228 229 238 

15 24 32 51 54 57 68 70 79 81 83 90 94 102 108 117 118 119 122 140 141 151 156 157 158 163 164 170 198 235 245 254 259 260 261 
1 8 12 20 72 95 120 125 132 147 161 175 179 191 219 240 
15 24 32 51 54 56 57 68 70 79 81 83 90 94 102 108 117 118 119 122 140 141 151 156 157 158 163 164 170 198 233 245 254 259 260 261 

5 246 
4 36 38 43 45 46 59 82 84 91 100 113 146 194 197 205 208 209 221 226 228 229 231 
214 
1 8 12 20 72 95 120 125 132 147 161 175 179 191 219 234 
67 

222 
166 
15 24 32 51 54 57 68 70 79 81 83 90 94 102 108 117 118 119 122 140 141 151 156 157 158 163 164 170 198 233 235 254 259 260 261 
5 237 
28 41 50 77 89 103 121 126 159 172 177 193 263 
7 160 180 181 199 
225 
181 


143 
15 24 32 51 54 57 68 70 79 81 83 90 94 102 108 117 118 119 122 140 141 151 156 157 158 163 164 170 198 233 235 245 259 260 261 

173 

17 33 66 111 206 212 
15 24 32 51 54 57 68 70 79 81 83 90 94 102 108 117 118 119 122 140 141 151 156 157 158 163 164 170 198 233 235 245 254 260 261 
15 24 32 51 54 57 68 70 79 81 83 90 94 102 108 117 118 119 122 140 141 151 156 157 158 163 164 170 198 233 235 245 254 259 261 
15 24 32 51 54 57 68 70 79 81 83 90 94 102 108 117 118 119 122 140 141 151 156 157 158 163 164 170 198 200 233 235 245 254 259 260 

28 41 50 77 89 103 121 126 159 172 177 193 247 
